computational_data/solutions/ER_n30_p020_s9.sol
Optimal - objective value 10.00000000
      0 r_0                         1                       1
     10 r_10                        1                       1
     14 r_14                        1                       1
     15 r_15                        1                       1
     17 r_17                        1                       1
     31 b_1                         1                       1
     39 b_9                         1                       1
     51 b_21                        1                       1
     57 b_27                        1                       1
     58 b_28                        1                       1
