computational_data/logs/ER_n30_p020_s9.log
Welcome to the CBC MILP Solver 
Version: 2.10.12 
Build Date: Aug 20 2024 

command line - /opt/homebrew/bin/cbc computational_data/lp/ER_n30_p020_s9.lp seconds 10.0 solve solu computational_data/solutions/ER_n30_p020_s9.sol (default strategy 1)
seconds was changed from 1e+100 to 10
Continuous objective value is 7.78916 - 0.00 seconds
Cgl0003I 0 fixed, 0 tightened bounds, 86 strengthened rows, 0 substitutions
Cgl0003I 0 fixed, 0 tightened bounds, 88 strengthened rows, 0 substitutions
Cgl0003I 0 fixed, 0 tightened bounds, 39 strengthened rows, 0 substitutions
Cgl0003I 0 fixed, 0 tightened bounds, 11 strengthened rows, 0 substitutions
Cgl0003I 0 fixed, 0 tightened bounds, 6 strengthened rows, 0 substitutions
Cgl0004I processed model has 218 rows, 60 columns (60 integer (60 of which binary)) and 1032 elements
Cutoff increment increased from 1e-05 to 0.9999
Cbc0038I Initial state - 34 integers unsatisfied sum - 7.68072
Cbc0038I Pass   1: suminf.    6.92030 (29) obj. 7.94018 iterations 35
Cbc0038I Pass   2: suminf.    6.25616 (30) obj. 8.21336 iterations 19
Cbc0038I Pass   3: suminf.    5.35000 (23) obj. 9.05 iterations 29
Cbc0038I Pass   4: suminf.    0.00000 (0) obj. 10 iterations 34
Cbc0038I Solution found of 10
Cbc0038I Before mini branch and bound, 14 integers at bound fixed and 0 continuous
Cbc0038I Full problem 218 rows 60 columns, reduced to 187 rows 46 columns - 3 fixed gives 93, 28 - ok now
Cbc0038I Full problem 218 rows 60 columns, reduced to 87 rows 26 columns
Cbc0038I Mini branch and bound did not improve solution (0.01 seconds)
Cbc0038I Round again with cutoff of 8.87901
Cbc0038I Pass   5: suminf.    6.92030 (29) obj. 7.94018 iterations 0
Cbc0038I Pass   6: suminf.    6.25616 (30) obj. 8.21336 iterations 23
Cbc0038I Pass   7: suminf.    5.38711 (27) obj. 8.87901 iterations 28
Cbc0038I Pass   8: suminf.    4.24199 (21) obj. 8.87901 iterations 28
Cbc0038I Pass   9: suminf.    7.11332 (23) obj. 8.87901 iterations 34
Cbc0038I Pass  10: suminf.    5.37366 (26) obj. 8.87901 iterations 31
Cbc0038I Pass  11: suminf.    5.03820 (19) obj. 8.87901 iterations 31
Cbc0038I Pass  12: suminf.    4.34649 (23) obj. 8.87901 iterations 29
Cbc0038I Pass  13: suminf.    5.02609 (29) obj. 8.87901 iterations 39
Cbc0038I Pass  14: suminf.    4.26026 (26) obj. 8.87901 iterations 24
Cbc0038I Pass  15: suminf.    8.34778 (32) obj. 8.87901 iterations 58
Cbc0038I Pass  16: suminf.    5.90311 (26) obj. 8.87901 iterations 35
Cbc0038I Pass  17: suminf.    4.91069 (27) obj. 8.87901 iterations 22
Cbc0038I Pass  18: suminf.    6.52029 (25) obj. 8.87901 iterations 32
Cbc0038I Pass  19: suminf.    5.05716 (28) obj. 8.87901 iterations 26
Cbc0038I Pass  20: suminf.    4.52604 (24) obj. 8.87901 iterations 13
Cbc0038I Pass  21: suminf.    4.06149 (26) obj. 8.87901 iterations 12
Cbc0038I Pass  22: suminf.    3.73879 (28) obj. 8.87901 iterations 9
Cbc0038I Pass  23: suminf.    3.30176 (28) obj. 8.87901 iterations 9
Cbc0038I Pass  24: suminf.    8.00943 (29) obj. 8.37736 iterations 44
Cbc0038I Pass  25: suminf.    6.21569 (29) obj. 8.86275 iterations 32
Cbc0038I Pass  26: suminf.    5.79295 (30) obj. 8.87901 iterations 14
Cbc0038I Pass  27: suminf.    5.46900 (27) obj. 8.87901 iterations 12
Cbc0038I Pass  28: suminf.    5.18062 (28) obj. 8.87901 iterations 9
Cbc0038I Pass  29: suminf.    6.11366 (25) obj. 8.87901 iterations 38
Cbc0038I Pass  30: suminf.    4.45780 (30) obj. 8.87901 iterations 28
Cbc0038I Pass  31: suminf.    4.09776 (28) obj. 8.87901 iterations 17
Cbc0038I Pass  32: suminf.    4.06025 (28) obj. 8.87901 iterations 9
Cbc0038I Pass  33: suminf.    3.82463 (27) obj. 8.87901 iterations 13
Cbc0038I Pass  34: suminf.    6.72405 (26) obj. 8.87901 iterations 53
Cbc0038I No solution found this major pass
Cbc0038I Before mini branch and bound, 2 integers at bound fixed and 0 continuous
Cbc0038I Full problem 218 rows 60 columns, reduced to 215 rows 58 columns - 4 fixed gives 115, 34 - ok now
Cbc0038I Mini branch and bound did not improve solution (0.02 seconds)
Cbc0038I After 0.02 seconds - Feasibility pump exiting with objective of 10 - took 0.02 seconds
Cbc0012I Integer solution of 10 found by feasibility pump after 0 iterations and 0 nodes (0.02 seconds)
Cbc0038I Full problem 218 rows 60 columns, reduced to 138 rows 35 columns - 10 fixed gives 0, 0 - ok now
Cbc0031I 12 added rows had average density of 19.75
Cbc0013I At root node, 12 cuts changed objective from 7.7891566 to 9 in 100 passes
Cbc0014I Cut generator 0 (Probing) - 8 row cuts average 5.1 elements, 0 column cuts (0 active)  in 0.023 seconds - new frequency is -100
Cbc0014I Cut generator 1 (Gomory) - 1500 row cuts average 59.9 elements, 0 column cuts (0 active)  in 0.022 seconds - new frequency is 1
Cbc0014I Cut generator 2 (Knapsack) - 0 row cuts average 0.0 elements, 0 column cuts (0 active)  in 0.004 seconds - new frequency is -100
Cbc0014I Cut generator 3 (Clique) - 0 row cuts average 0.0 elements, 0 column cuts (0 active)  in 0.004 seconds - new frequency is -100
Cbc0014I Cut generator 4 (MixedIntegerRounding2) - 4 row cuts average 60.0 elements, 0 column cuts (0 active)  in 0.014 seconds - new frequency is -100
Cbc0014I Cut generator 5 (FlowCover) - 0 row cuts average 0.0 elements, 0 column cuts (0 active)  in 0.001 seconds - new frequency is -100
Cbc0014I Cut generator 6 (TwoMirCuts) - 178 row cuts average 59.9 elements, 0 column cuts (0 active)  in 0.013 seconds - new frequency is 1
Cbc0014I Cut generator 7 (ZeroHalf) - 271 row cuts average 12.9 elements, 0 column cuts (0 active)  in 0.128 seconds - new frequency is 1
Cbc0010I After 0 nodes, 1 on tree, 10 best solution, best possible 9 (0.32 seconds)
Cbc0038I Full problem 218 rows 60 columns, reduced to 140 rows 36 columns - 10 fixed gives 0, 0 - ok now
Cbc0001I Search completed - best objective 10, took 8896 iterations and 72 nodes (0.75 seconds)
Cbc0032I Strong branching done 868 times (18496 iterations), fathomed 9 nodes and fixed 5 variables
Cbc0035I Maximum depth 14, 0 variables fixed on reduced cost
Cuts at root node changed objective from 7.78916 to 9
Probing was tried 100 times and created 8 cuts of which 0 were active after adding rounds of cuts (0.023 seconds)
Gomory was tried 237 times and created 1513 cuts of which 0 were active after adding rounds of cuts (0.032 seconds)
Knapsack was tried 100 times and created 0 cuts of which 0 were active after adding rounds of cuts (0.004 seconds)
Clique was tried 100 times and created 0 cuts of which 0 were active after adding rounds of cuts (0.004 seconds)
MixedIntegerRounding2 was tried 100 times and created 4 cuts of which 0 were active after adding rounds of cuts (0.014 seconds)
FlowCover was tried 100 times and created 0 cuts of which 0 were active after adding rounds of cuts (0.001 seconds)
TwoMirCuts was tried 237 times and created 424 cuts of which 0 were active after adding rounds of cuts (0.027 seconds)
ZeroHalf was tried 237 times and created 797 cuts of which 0 were active after adding rounds of cuts (0.295 seconds)

Result - Optimal solution found

Objective value:                10.00000000
Enumerated nodes:               72
Total iterations:               8896
Time (CPU seconds):             0.75
Time (Wallclock seconds):       0.79

Total time (CPU seconds):       0.75   (Wallclock seconds):       0.79

